\* AssignmentProblem *\
Minimize
OBJ: 17813.1439045 A320_000_KATL_KBOS + 31027.6431661 A320_000_KATL_KLAX
 + 17716.6691543 A320_000_KATL_KMSP + 50953.7557441 A320_000_KATL_PANC
 + 17350.8679496 A320_000_KBOS_KATL + 37395.2482638 A320_000_KIAD_KSFO
 + 17794.3762952 A320_000_KIAH_KORD + 37782.325174 A320_000_KJFK_KSEA
 + 54872.1272065 A320_000_KJFK_LFPG + 31704.4141873 A320_000_KLAX_KATL
 + 17388.81339 A320_000_KMSP_KATL + 17276.1664347 A320_000_KORD_KIAH
 + 37893.7321129 A320_000_KSEA_KJFK + 37436.1155744 A320_000_KSFO_KIAD
 + 51085.0814491 A320_000_PANC_KATL + 17813.1439045 A320_003_KATL_KBOS
 + 31027.6431661 A320_003_KATL_KLAX + 17716.6691543 A320_003_KATL_KMSP
 + 50953.7557441 A320_003_KATL_PANC + 17350.8679496 A320_003_KBOS_KATL
 + 37395.2482638 A320_003_KIAD_KSFO + 17794.3762952 A320_003_KIAH_KORD
 + 37782.325174 A320_003_KJFK_KSEA + 54872.1272065 A320_003_KJFK_LFPG
 + 31704.4141873 A320_003_KLAX_KATL + 17388.81339 A320_003_KMSP_KATL
 + 17276.1664347 A320_003_KORD_KIAH + 37893.7321129 A320_003_KSEA_KJFK
 + 37436.1155744 A320_003_KSFO_KIAD + 51085.0814491 A320_003_PANC_KATL
 + 17813.1439045 A320_006_KATL_KBOS + 31027.6431661 A320_006_KATL_KLAX
 + 17716.6691543 A320_006_KATL_KMSP + 50953.7557441 A320_006_KATL_PANC
 + 17350.8679496 A320_006_KBOS_KATL + 37395.2482638 A320_006_KIAD_KSFO
 + 17794.3762952 A320_006_KIAH_KORD + 37782.325174 A320_006_KJFK_KSEA
 + 54872.1272065 A320_006_KJFK_LFPG + 31704.4141873 A320_006_KLAX_KATL
 + 17388.81339 A320_006_KMSP_KATL + 17276.1664347 A320_006_KORD_KIAH
 + 37893.7321129 A320_006_KSEA_KJFK + 37436.1155744 A320_006_KSFO_KIAD
 + 51085.0814491 A320_006_PANC_KATL + 17813.1439045 A320_009_KATL_KBOS
 + 31027.6431661 A320_009_KATL_KLAX + 17716.6691543 A320_009_KATL_KMSP
 + 50953.7557441 A320_009_KATL_PANC + 17350.8679496 A320_009_KBOS_KATL
 + 37395.2482638 A320_009_KIAD_KSFO + 17794.3762952 A320_009_KIAH_KORD
 + 37782.325174 A320_009_KJFK_KSEA + 54872.1272065 A320_009_KJFK_LFPG
 + 31704.4141873 A320_009_KLAX_KATL + 17388.81339 A320_009_KMSP_KATL
 + 17276.1664347 A320_009_KORD_KIAH + 37893.7321129 A320_009_KSEA_KJFK
 + 37436.1155744 A320_009_KSFO_KIAD + 51085.0814491 A320_009_PANC_KATL
 + 17813.1439045 A320_012_KATL_KBOS + 31027.6431661 A320_012_KATL_KLAX
 + 17716.6691543 A320_012_KATL_KMSP + 50953.7557441 A320_012_KATL_PANC
 + 17350.8679496 A320_012_KBOS_KATL + 37395.2482638 A320_012_KIAD_KSFO
 + 17794.3762952 A320_012_KIAH_KORD + 37782.325174 A320_012_KJFK_KSEA
 + 54872.1272065 A320_012_KJFK_LFPG + 31704.4141873 A320_012_KLAX_KATL
 + 17388.81339 A320_012_KMSP_KATL + 17276.1664347 A320_012_KORD_KIAH
 + 37893.7321129 A320_012_KSEA_KJFK + 37436.1155744 A320_012_KSFO_KIAD
 + 51085.0814491 A320_012_PANC_KATL + 28546.7125989 A332_001_KATL_KBOS
 + 48642.4048471 A332_001_KATL_KLAX + 28456.072729 A332_001_KATL_KMSP
 + 78810.0179106 A332_001_KATL_PANC + 27826.2323663 A332_001_KBOS_KATL
 + 58292.730375 A332_001_KIAD_KSFO + 28515.0251487 A332_001_KIAH_KORD
 + 58914.9261887 A332_001_KJFK_KSEA + 84844.2590146 A332_001_KJFK_LFPG
 + 49832.2587945 A332_001_KLAX_KATL + 27962.9689898 A332_001_KMSP_KATL
 + 27685.3446195 A332_001_KORD_KIAH + 59065.1606939 A332_001_KSEA_KJFK
 + 58397.0008553 A332_001_KSFO_KIAD + 79083.4716956 A332_001_PANC_KATL
 + 28546.7125989 A332_004_KATL_KBOS + 48642.4048471 A332_004_KATL_KLAX
 + 28456.072729 A332_004_KATL_KMSP + 78810.0179106 A332_004_KATL_PANC
 + 27826.2323663 A332_004_KBOS_KATL + 58292.730375 A332_004_KIAD_KSFO
 + 28515.0251487 A332_004_KIAH_KORD + 58914.9261887 A332_004_KJFK_KSEA
 + 84844.2590146 A332_004_KJFK_LFPG + 49832.2587945 A332_004_KLAX_KATL
 + 27962.9689898 A332_004_KMSP_KATL + 27685.3446195 A332_004_KORD_KIAH
 + 59065.1606939 A332_004_KSEA_KJFK + 58397.0008553 A332_004_KSFO_KIAD
 + 79083.4716956 A332_004_PANC_KATL + 28546.7125989 A332_007_KATL_KBOS
 + 48642.4048471 A332_007_KATL_KLAX + 28456.072729 A332_007_KATL_KMSP
 + 78810.0179106 A332_007_KATL_PANC + 27826.2323663 A332_007_KBOS_KATL
 + 58292.730375 A332_007_KIAD_KSFO + 28515.0251487 A332_007_KIAH_KORD
 + 58914.9261887 A332_007_KJFK_KSEA + 84844.2590146 A332_007_KJFK_LFPG
 + 49832.2587945 A332_007_KLAX_KATL + 27962.9689898 A332_007_KMSP_KATL
 + 27685.3446195 A332_007_KORD_KIAH + 59065.1606939 A332_007_KSEA_KJFK
 + 58397.0008553 A332_007_KSFO_KIAD + 79083.4716956 A332_007_PANC_KATL
 + 28546.7125989 A332_010_KATL_KBOS + 48642.4048471 A332_010_KATL_KLAX
 + 28456.072729 A332_010_KATL_KMSP + 78810.0179106 A332_010_KATL_PANC
 + 27826.2323663 A332_010_KBOS_KATL + 58292.730375 A332_010_KIAD_KSFO
 + 28515.0251487 A332_010_KIAH_KORD + 58914.9261887 A332_010_KJFK_KSEA
 + 84844.2590146 A332_010_KJFK_LFPG + 49832.2587945 A332_010_KLAX_KATL
 + 27962.9689898 A332_010_KMSP_KATL + 27685.3446195 A332_010_KORD_KIAH
 + 59065.1606939 A332_010_KSEA_KJFK + 58397.0008553 A332_010_KSFO_KIAD
 + 79083.4716956 A332_010_PANC_KATL + 28546.7125989 A332_013_KATL_KBOS
 + 48642.4048471 A332_013_KATL_KLAX + 28456.072729 A332_013_KATL_KMSP
 + 78810.0179106 A332_013_KATL_PANC + 27826.2323663 A332_013_KBOS_KATL
 + 58292.730375 A332_013_KIAD_KSFO + 28515.0251487 A332_013_KIAH_KORD
 + 58914.9261887 A332_013_KJFK_KSEA + 84844.2590146 A332_013_KJFK_LFPG
 + 49832.2587945 A332_013_KLAX_KATL + 27962.9689898 A332_013_KMSP_KATL
 + 27685.3446195 A332_013_KORD_KIAH + 59065.1606939 A332_013_KSEA_KJFK
 + 58397.0008553 A332_013_KSFO_KIAD + 79083.4716956 A332_013_PANC_KATL
 + 18054.4779407 B738_002_KATL_KBOS + 31716.3681824 B738_002_KATL_KLAX
 + 17965.6376047 B738_002_KATL_KMSP + 51900.3036119 B738_002_KATL_PANC
 + 17542.6829346 B738_002_KBOS_KATL + 38091.6102898 B738_002_KIAD_KSFO
 + 17937.767829 B738_002_KIAH_KORD + 38439.4862805 B738_002_KJFK_KSEA
 + 55767.5763416 B738_002_KJFK_LFPG + 32250.4349735 B738_002_KLAX_KATL
 + 17642.1496593 B738_002_KMSP_KATL + 17483.3603844 B738_002_KORD_KIAH
 + 38594.3655783 B738_002_KSEA_KJFK + 38103.1248591 B738_002_KSFO_KIAD
 + 51884.6116882 B738_002_PANC_KATL + 18054.4779407 B738_005_KATL_KBOS
 + 31716.3681824 B738_005_KATL_KLAX + 17965.6376047 B738_005_KATL_KMSP
 + 51900.3036119 B738_005_KATL_PANC + 17542.6829346 B738_005_KBOS_KATL
 + 38091.6102898 B738_005_KIAD_KSFO + 17937.767829 B738_005_KIAH_KORD
 + 38439.4862805 B738_005_KJFK_KSEA + 55767.5763416 B738_005_KJFK_LFPG
 + 32250.4349735 B738_005_KLAX_KATL + 17642.1496593 B738_005_KMSP_KATL
 + 17483.3603844 B738_005_KORD_KIAH + 38594.3655783 B738_005_KSEA_KJFK
 + 38103.1248591 B738_005_KSFO_KIAD + 51884.6116882 B738_005_PANC_KATL
 + 18054.4779407 B738_008_KATL_KBOS + 31716.3681824 B738_008_KATL_KLAX
 + 17965.6376047 B738_008_KATL_KMSP + 51900.3036119 B738_008_KATL_PANC
 + 17542.6829346 B738_008_KBOS_KATL + 38091.6102898 B738_008_KIAD_KSFO
 + 17937.767829 B738_008_KIAH_KORD + 38439.4862805 B738_008_KJFK_KSEA
 + 55767.5763416 B738_008_KJFK_LFPG + 32250.4349735 B738_008_KLAX_KATL
 + 17642.1496593 B738_008_KMSP_KATL + 17483.3603844 B738_008_KORD_KIAH
 + 38594.3655783 B738_008_KSEA_KJFK + 38103.1248591 B738_008_KSFO_KIAD
 + 51884.6116882 B738_008_PANC_KATL + 18054.4779407 B738_011_KATL_KBOS
 + 31716.3681824 B738_011_KATL_KLAX + 17965.6376047 B738_011_KATL_KMSP
 + 51900.3036119 B738_011_KATL_PANC + 17542.6829346 B738_011_KBOS_KATL
 + 38091.6102898 B738_011_KIAD_KSFO + 17937.767829 B738_011_KIAH_KORD
 + 38439.4862805 B738_011_KJFK_KSEA + 55767.5763416 B738_011_KJFK_LFPG
 + 32250.4349735 B738_011_KLAX_KATL + 17642.1496593 B738_011_KMSP_KATL
 + 17483.3603844 B738_011_KORD_KIAH + 38594.3655783 B738_011_KSEA_KJFK
 + 38103.1248591 B738_011_KSFO_KIAD + 51884.6116882 B738_011_PANC_KATL
 + 18054.4779407 B738_014_KATL_KBOS + 31716.3681824 B738_014_KATL_KLAX
 + 17965.6376047 B738_014_KATL_KMSP + 51900.3036119 B738_014_KATL_PANC
 + 17542.6829346 B738_014_KBOS_KATL + 38091.6102898 B738_014_KIAD_KSFO
 + 17937.767829 B738_014_KIAH_KORD + 38439.4862805 B738_014_KJFK_KSEA
 + 55767.5763416 B738_014_KJFK_LFPG + 32250.4349735 B738_014_KLAX_KATL
 + 17642.1496593 B738_014_KMSP_KATL + 17483.3603844 B738_014_KORD_KIAH
 + 38594.3655783 B738_014_KSEA_KJFK + 38103.1248591 B738_014_KSFO_KIAD
 + 51884.6116882 B738_014_PANC_KATL
Subject To
_C1: A320_000_KATL_KBOS + A320_000_KATL_KLAX + A320_000_KATL_KMSP
 + A320_000_KATL_PANC + A320_000_KBOS_KATL + A320_000_KIAD_KSFO
 + A320_000_KIAH_KORD + A320_000_KJFK_KSEA + A320_000_KJFK_LFPG
 + A320_000_KLAX_KATL + A320_000_KMSP_KATL + A320_000_KORD_KIAH
 + A320_000_KSEA_KJFK + A320_000_KSFO_KIAD + A320_000_PANC_KATL <= 1
_C10: A320_009_KATL_KBOS + A320_009_KATL_KLAX + A320_009_KATL_KMSP
 + A320_009_KATL_PANC + A320_009_KBOS_KATL + A320_009_KIAD_KSFO
 + A320_009_KIAH_KORD + A320_009_KJFK_KSEA + A320_009_KJFK_LFPG
 + A320_009_KLAX_KATL + A320_009_KMSP_KATL + A320_009_KORD_KIAH
 + A320_009_KSEA_KJFK + A320_009_KSFO_KIAD + A320_009_PANC_KATL <= 1
_C11: A332_010_KATL_KBOS + A332_010_KATL_KLAX + A332_010_KATL_KMSP
 + A332_010_KATL_PANC + A332_010_KBOS_KATL + A332_010_KIAD_KSFO
 + A332_010_KIAH_KORD + A332_010_KJFK_KSEA + A332_010_KJFK_LFPG
 + A332_010_KLAX_KATL + A332_010_KMSP_KATL + A332_010_KORD_KIAH
 + A332_010_KSEA_KJFK + A332_010_KSFO_KIAD + A332_010_PANC_KATL <= 1
_C12: B738_011_KATL_KBOS + B738_011_KATL_KLAX + B738_011_KATL_KMSP
 + B738_011_KATL_PANC + B738_011_KBOS_KATL + B738_011_KIAD_KSFO
 + B738_011_KIAH_KORD + B738_011_KJFK_KSEA + B738_011_KJFK_LFPG
 + B738_011_KLAX_KATL + B738_011_KMSP_KATL + B738_011_KORD_KIAH
 + B738_011_KSEA_KJFK + B738_011_KSFO_KIAD + B738_011_PANC_KATL <= 1
_C13: A320_012_KATL_KBOS + A320_012_KATL_KLAX + A320_012_KATL_KMSP
 + A320_012_KATL_PANC + A320_012_KBOS_KATL + A320_012_KIAD_KSFO
 + A320_012_KIAH_KORD + A320_012_KJFK_KSEA + A320_012_KJFK_LFPG
 + A320_012_KLAX_KATL + A320_012_KMSP_KATL + A320_012_KORD_KIAH
 + A320_012_KSEA_KJFK + A320_012_KSFO_KIAD + A320_012_PANC_KATL <= 1
_C14: A332_013_KATL_KBOS + A332_013_KATL_KLAX + A332_013_KATL_KMSP
 + A332_013_KATL_PANC + A332_013_KBOS_KATL + A332_013_KIAD_KSFO
 + A332_013_KIAH_KORD + A332_013_KJFK_KSEA + A332_013_KJFK_LFPG
 + A332_013_KLAX_KATL + A332_013_KMSP_KATL + A332_013_KORD_KIAH
 + A332_013_KSEA_KJFK + A332_013_KSFO_KIAD + A332_013_PANC_KATL <= 1
_C15: B738_014_KATL_KBOS + B738_014_KATL_KLAX + B738_014_KATL_KMSP
 + B738_014_KATL_PANC + B738_014_KBOS_KATL + B738_014_KIAD_KSFO
 + B738_014_KIAH_KORD + B738_014_KJFK_KSEA + B738_014_KJFK_LFPG
 + B738_014_KLAX_KATL + B738_014_KMSP_KATL + B738_014_KORD_KIAH
 + B738_014_KSEA_KJFK + B738_014_KSFO_KIAD + B738_014_PANC_KATL <= 1
_C16: A320_000_KATL_KLAX + A320_003_KATL_KLAX + A320_006_KATL_KLAX
 + A320_009_KATL_KLAX + A320_012_KATL_KLAX + A332_001_KATL_KLAX
 + A332_004_KATL_KLAX + A332_007_KATL_KLAX + A332_010_KATL_KLAX
 + A332_013_KATL_KLAX + B738_002_KATL_KLAX + B738_005_KATL_KLAX
 + B738_008_KATL_KLAX + B738_011_KATL_KLAX + B738_014_KATL_KLAX = 1
_C17: A320_000_KJFK_KSEA + A320_003_KJFK_KSEA + A320_006_KJFK_KSEA
 + A320_009_KJFK_KSEA + A320_012_KJFK_KSEA + A332_001_KJFK_KSEA
 + A332_004_KJFK_KSEA + A332_007_KJFK_KSEA + A332_010_KJFK_KSEA
 + A332_013_KJFK_KSEA + B738_002_KJFK_KSEA + B738_005_KJFK_KSEA
 + B738_008_KJFK_KSEA + B738_011_KJFK_KSEA + B738_014_KJFK_KSEA = 1
_C18: A320_000_KATL_KMSP + A320_003_KATL_KMSP + A320_006_KATL_KMSP
 + A320_009_KATL_KMSP + A320_012_KATL_KMSP + A332_001_KATL_KMSP
 + A332_004_KATL_KMSP + A332_007_KATL_KMSP + A332_010_KATL_KMSP
 + A332_013_KATL_KMSP + B738_002_KATL_KMSP + B738_005_KATL_KMSP
 + B738_008_KATL_KMSP + B738_011_KATL_KMSP + B738_014_KATL_KMSP = 1
_C19: A320_000_KBOS_KATL + A320_003_KBOS_KATL + A320_006_KBOS_KATL
 + A320_009_KBOS_KATL + A320_012_KBOS_KATL + A332_001_KBOS_KATL
 + A332_004_KBOS_KATL + A332_007_KBOS_KATL + A332_010_KBOS_KATL
 + A332_013_KBOS_KATL + B738_002_KBOS_KATL + B738_005_KBOS_KATL
 + B738_008_KBOS_KATL + B738_011_KBOS_KATL + B738_014_KBOS_KATL = 1
_C2: A332_001_KATL_KBOS + A332_001_KATL_KLAX + A332_001_KATL_KMSP
 + A332_001_KATL_PANC + A332_001_KBOS_KATL + A332_001_KIAD_KSFO
 + A332_001_KIAH_KORD + A332_001_KJFK_KSEA + A332_001_KJFK_LFPG
 + A332_001_KLAX_KATL + A332_001_KMSP_KATL + A332_001_KORD_KIAH
 + A332_001_KSEA_KJFK + A332_001_KSFO_KIAD + A332_001_PANC_KATL <= 1
_C20: A320_000_KIAH_KORD + A320_003_KIAH_KORD + A320_006_KIAH_KORD
 + A320_009_KIAH_KORD + A320_012_KIAH_KORD + A332_001_KIAH_KORD
 + A332_004_KIAH_KORD + A332_007_KIAH_KORD + A332_010_KIAH_KORD
 + A332_013_KIAH_KORD + B738_002_KIAH_KORD + B738_005_KIAH_KORD
 + B738_008_KIAH_KORD + B738_011_KIAH_KORD + B738_014_KIAH_KORD = 1
_C21: A320_000_KIAD_KSFO + A320_003_KIAD_KSFO + A320_006_KIAD_KSFO
 + A320_009_KIAD_KSFO + A320_012_KIAD_KSFO + A332_001_KIAD_KSFO
 + A332_004_KIAD_KSFO + A332_007_KIAD_KSFO + A332_010_KIAD_KSFO
 + A332_013_KIAD_KSFO + B738_002_KIAD_KSFO + B738_005_KIAD_KSFO
 + B738_008_KIAD_KSFO + B738_011_KIAD_KSFO + B738_014_KIAD_KSFO = 1
_C22: A320_000_PANC_KATL + A320_003_PANC_KATL + A320_006_PANC_KATL
 + A320_009_PANC_KATL + A320_012_PANC_KATL + A332_001_PANC_KATL
 + A332_004_PANC_KATL + A332_007_PANC_KATL + A332_010_PANC_KATL
 + A332_013_PANC_KATL + B738_002_PANC_KATL + B738_005_PANC_KATL
 + B738_008_PANC_KATL + B738_011_PANC_KATL + B738_014_PANC_KATL = 1
_C23: A320_000_KLAX_KATL + A320_003_KLAX_KATL + A320_006_KLAX_KATL
 + A320_009_KLAX_KATL + A320_012_KLAX_KATL + A332_001_KLAX_KATL
 + A332_004_KLAX_KATL + A332_007_KLAX_KATL + A332_010_KLAX_KATL
 + A332_013_KLAX_KATL + B738_002_KLAX_KATL + B738_005_KLAX_KATL
 + B738_008_KLAX_KATL + B738_011_KLAX_KATL + B738_014_KLAX_KATL = 1
_C24: A320_000_KSEA_KJFK + A320_003_KSEA_KJFK + A320_006_KSEA_KJFK
 + A320_009_KSEA_KJFK + A320_012_KSEA_KJFK + A332_001_KSEA_KJFK
 + A332_004_KSEA_KJFK + A332_007_KSEA_KJFK + A332_010_KSEA_KJFK
 + A332_013_KSEA_KJFK + B738_002_KSEA_KJFK + B738_005_KSEA_KJFK
 + B738_008_KSEA_KJFK + B738_011_KSEA_KJFK + B738_014_KSEA_KJFK = 1
_C25: A320_000_KMSP_KATL + A320_003_KMSP_KATL + A320_006_KMSP_KATL
 + A320_009_KMSP_KATL + A320_012_KMSP_KATL + A332_001_KMSP_KATL
 + A332_004_KMSP_KATL + A332_007_KMSP_KATL + A332_010_KMSP_KATL
 + A332_013_KMSP_KATL + B738_002_KMSP_KATL + B738_005_KMSP_KATL
 + B738_008_KMSP_KATL + B738_011_KMSP_KATL + B738_014_KMSP_KATL = 1
_C26: A320_000_KATL_KBOS + A320_003_KATL_KBOS + A320_006_KATL_KBOS
 + A320_009_KATL_KBOS + A320_012_KATL_KBOS + A332_001_KATL_KBOS
 + A332_004_KATL_KBOS + A332_007_KATL_KBOS + A332_010_KATL_KBOS
 + A332_013_KATL_KBOS + B738_002_KATL_KBOS + B738_005_KATL_KBOS
 + B738_008_KATL_KBOS + B738_011_KATL_KBOS + B738_014_KATL_KBOS = 1
_C27: A320_000_KORD_KIAH + A320_003_KORD_KIAH + A320_006_KORD_KIAH
 + A320_009_KORD_KIAH + A320_012_KORD_KIAH + A332_001_KORD_KIAH
 + A332_004_KORD_KIAH + A332_007_KORD_KIAH + A332_010_KORD_KIAH
 + A332_013_KORD_KIAH + B738_002_KORD_KIAH + B738_005_KORD_KIAH
 + B738_008_KORD_KIAH + B738_011_KORD_KIAH + B738_014_KORD_KIAH = 1
_C28: A320_000_KSFO_KIAD + A320_003_KSFO_KIAD + A320_006_KSFO_KIAD
 + A320_009_KSFO_KIAD + A320_012_KSFO_KIAD + A332_001_KSFO_KIAD
 + A332_004_KSFO_KIAD + A332_007_KSFO_KIAD + A332_010_KSFO_KIAD
 + A332_013_KSFO_KIAD + B738_002_KSFO_KIAD + B738_005_KSFO_KIAD
 + B738_008_KSFO_KIAD + B738_011_KSFO_KIAD + B738_014_KSFO_KIAD = 1
_C29: A320_000_KATL_PANC + A320_003_KATL_PANC + A320_006_KATL_PANC
 + A320_009_KATL_PANC + A320_012_KATL_PANC + A332_001_KATL_PANC
 + A332_004_KATL_PANC + A332_007_KATL_PANC + A332_010_KATL_PANC
 + A332_013_KATL_PANC + B738_002_KATL_PANC + B738_005_KATL_PANC
 + B738_008_KATL_PANC + B738_011_KATL_PANC + B738_014_KATL_PANC = 1
_C3: B738_002_KATL_KBOS + B738_002_KATL_KLAX + B738_002_KATL_KMSP
 + B738_002_KATL_PANC + B738_002_KBOS_KATL + B738_002_KIAD_KSFO
 + B738_002_KIAH_KORD + B738_002_KJFK_KSEA + B738_002_KJFK_LFPG
 + B738_002_KLAX_KATL + B738_002_KMSP_KATL + B738_002_KORD_KIAH
 + B738_002_KSEA_KJFK + B738_002_KSFO_KIAD + B738_002_PANC_KATL <= 1
_C30: A320_000_KJFK_LFPG + A320_003_KJFK_LFPG + A320_006_KJFK_LFPG
 + A320_009_KJFK_LFPG + A320_012_KJFK_LFPG + A332_001_KJFK_LFPG
 + A332_004_KJFK_LFPG + A332_007_KJFK_LFPG + A332_010_KJFK_LFPG
 + A332_013_KJFK_LFPG + B738_002_KJFK_LFPG + B738_005_KJFK_LFPG
 + B738_008_KJFK_LFPG + B738_011_KJFK_LFPG + B738_014_KJFK_LFPG = 1
_C4: A320_003_KATL_KBOS + A320_003_KATL_KLAX + A320_003_KATL_KMSP
 + A320_003_KATL_PANC + A320_003_KBOS_KATL + A320_003_KIAD_KSFO
 + A320_003_KIAH_KORD + A320_003_KJFK_KSEA + A320_003_KJFK_LFPG
 + A320_003_KLAX_KATL + A320_003_KMSP_KATL + A320_003_KORD_KIAH
 + A320_003_KSEA_KJFK + A320_003_KSFO_KIAD + A320_003_PANC_KATL <= 1
_C5: A332_004_KATL_KBOS + A332_004_KATL_KLAX + A332_004_KATL_KMSP
 + A332_004_KATL_PANC + A332_004_KBOS_KATL + A332_004_KIAD_KSFO
 + A332_004_KIAH_KORD + A332_004_KJFK_KSEA + A332_004_KJFK_LFPG
 + A332_004_KLAX_KATL + A332_004_KMSP_KATL + A332_004_KORD_KIAH
 + A332_004_KSEA_KJFK + A332_004_KSFO_KIAD + A332_004_PANC_KATL <= 1
_C6: B738_005_KATL_KBOS + B738_005_KATL_KLAX + B738_005_KATL_KMSP
 + B738_005_KATL_PANC + B738_005_KBOS_KATL + B738_005_KIAD_KSFO
 + B738_005_KIAH_KORD + B738_005_KJFK_KSEA + B738_005_KJFK_LFPG
 + B738_005_KLAX_KATL + B738_005_KMSP_KATL + B738_005_KORD_KIAH
 + B738_005_KSEA_KJFK + B738_005_KSFO_KIAD + B738_005_PANC_KATL <= 1
_C7: A320_006_KATL_KBOS + A320_006_KATL_KLAX + A320_006_KATL_KMSP
 + A320_006_KATL_PANC + A320_006_KBOS_KATL + A320_006_KIAD_KSFO
 + A320_006_KIAH_KORD + A320_006_KJFK_KSEA + A320_006_KJFK_LFPG
 + A320_006_KLAX_KATL + A320_006_KMSP_KATL + A320_006_KORD_KIAH
 + A320_006_KSEA_KJFK + A320_006_KSFO_KIAD + A320_006_PANC_KATL <= 1
_C8: A332_007_KATL_KBOS + A332_007_KATL_KLAX + A332_007_KATL_KMSP
 + A332_007_KATL_PANC + A332_007_KBOS_KATL + A332_007_KIAD_KSFO
 + A332_007_KIAH_KORD + A332_007_KJFK_KSEA + A332_007_KJFK_LFPG
 + A332_007_KLAX_KATL + A332_007_KMSP_KATL + A332_007_KORD_KIAH
 + A332_007_KSEA_KJFK + A332_007_KSFO_KIAD + A332_007_PANC_KATL <= 1
_C9: B738_008_KATL_KBOS + B738_008_KATL_KLAX + B738_008_KATL_KMSP
 + B738_008_KATL_PANC + B738_008_KBOS_KATL + B738_008_KIAD_KSFO
 + B738_008_KIAH_KORD + B738_008_KJFK_KSEA + B738_008_KJFK_LFPG
 + B738_008_KLAX_KATL + B738_008_KMSP_KATL + B738_008_KORD_KIAH
 + B738_008_KSEA_KJFK + B738_008_KSFO_KIAD + B738_008_PANC_KATL <= 1
Binaries
A320_000_KATL_KBOS
A320_000_KATL_KLAX
A320_000_KATL_KMSP
A320_000_KATL_PANC
A320_000_KBOS_KATL
A320_000_KIAD_KSFO
A320_000_KIAH_KORD
A320_000_KJFK_KSEA
A320_000_KJFK_LFPG
A320_000_KLAX_KATL
A320_000_KMSP_KATL
A320_000_KORD_KIAH
A320_000_KSEA_KJFK
A320_000_KSFO_KIAD
A320_000_PANC_KATL
A320_003_KATL_KBOS
A320_003_KATL_KLAX
A320_003_KATL_KMSP
A320_003_KATL_PANC
A320_003_KBOS_KATL
A320_003_KIAD_KSFO
A320_003_KIAH_KORD
A320_003_KJFK_KSEA
A320_003_KJFK_LFPG
A320_003_KLAX_KATL
A320_003_KMSP_KATL
A320_003_KORD_KIAH
A320_003_KSEA_KJFK
A320_003_KSFO_KIAD
A320_003_PANC_KATL
A320_006_KATL_KBOS
A320_006_KATL_KLAX
A320_006_KATL_KMSP
A320_006_KATL_PANC
A320_006_KBOS_KATL
A320_006_KIAD_KSFO
A320_006_KIAH_KORD
A320_006_KJFK_KSEA
A320_006_KJFK_LFPG
A320_006_KLAX_KATL
A320_006_KMSP_KATL
A320_006_KORD_KIAH
A320_006_KSEA_KJFK
A320_006_KSFO_KIAD
A320_006_PANC_KATL
A320_009_KATL_KBOS
A320_009_KATL_KLAX
A320_009_KATL_KMSP
A320_009_KATL_PANC
A320_009_KBOS_KATL
A320_009_KIAD_KSFO
A320_009_KIAH_KORD
A320_009_KJFK_KSEA
A320_009_KJFK_LFPG
A320_009_KLAX_KATL
A320_009_KMSP_KATL
A320_009_KORD_KIAH
A320_009_KSEA_KJFK
A320_009_KSFO_KIAD
A320_009_PANC_KATL
A320_012_KATL_KBOS
A320_012_KATL_KLAX
A320_012_KATL_KMSP
A320_012_KATL_PANC
A320_012_KBOS_KATL
A320_012_KIAD_KSFO
A320_012_KIAH_KORD
A320_012_KJFK_KSEA
A320_012_KJFK_LFPG
A320_012_KLAX_KATL
A320_012_KMSP_KATL
A320_012_KORD_KIAH
A320_012_KSEA_KJFK
A320_012_KSFO_KIAD
A320_012_PANC_KATL
A332_001_KATL_KBOS
A332_001_KATL_KLAX
A332_001_KATL_KMSP
A332_001_KATL_PANC
A332_001_KBOS_KATL
A332_001_KIAD_KSFO
A332_001_KIAH_KORD
A332_001_KJFK_KSEA
A332_001_KJFK_LFPG
A332_001_KLAX_KATL
A332_001_KMSP_KATL
A332_001_KORD_KIAH
A332_001_KSEA_KJFK
A332_001_KSFO_KIAD
A332_001_PANC_KATL
A332_004_KATL_KBOS
A332_004_KATL_KLAX
A332_004_KATL_KMSP
A332_004_KATL_PANC
A332_004_KBOS_KATL
A332_004_KIAD_KSFO
A332_004_KIAH_KORD
A332_004_KJFK_KSEA
A332_004_KJFK_LFPG
A332_004_KLAX_KATL
A332_004_KMSP_KATL
A332_004_KORD_KIAH
A332_004_KSEA_KJFK
A332_004_KSFO_KIAD
A332_004_PANC_KATL
A332_007_KATL_KBOS
A332_007_KATL_KLAX
A332_007_KATL_KMSP
A332_007_KATL_PANC
A332_007_KBOS_KATL
A332_007_KIAD_KSFO
A332_007_KIAH_KORD
A332_007_KJFK_KSEA
A332_007_KJFK_LFPG
A332_007_KLAX_KATL
A332_007_KMSP_KATL
A332_007_KORD_KIAH
A332_007_KSEA_KJFK
A332_007_KSFO_KIAD
A332_007_PANC_KATL
A332_010_KATL_KBOS
A332_010_KATL_KLAX
A332_010_KATL_KMSP
A332_010_KATL_PANC
A332_010_KBOS_KATL
A332_010_KIAD_KSFO
A332_010_KIAH_KORD
A332_010_KJFK_KSEA
A332_010_KJFK_LFPG
A332_010_KLAX_KATL
A332_010_KMSP_KATL
A332_010_KORD_KIAH
A332_010_KSEA_KJFK
A332_010_KSFO_KIAD
A332_010_PANC_KATL
A332_013_KATL_KBOS
A332_013_KATL_KLAX
A332_013_KATL_KMSP
A332_013_KATL_PANC
A332_013_KBOS_KATL
A332_013_KIAD_KSFO
A332_013_KIAH_KORD
A332_013_KJFK_KSEA
A332_013_KJFK_LFPG
A332_013_KLAX_KATL
A332_013_KMSP_KATL
A332_013_KORD_KIAH
A332_013_KSEA_KJFK
A332_013_KSFO_KIAD
A332_013_PANC_KATL
B738_002_KATL_KBOS
B738_002_KATL_KLAX
B738_002_KATL_KMSP
B738_002_KATL_PANC
B738_002_KBOS_KATL
B738_002_KIAD_KSFO
B738_002_KIAH_KORD
B738_002_KJFK_KSEA
B738_002_KJFK_LFPG
B738_002_KLAX_KATL
B738_002_KMSP_KATL
B738_002_KORD_KIAH
B738_002_KSEA_KJFK
B738_002_KSFO_KIAD
B738_002_PANC_KATL
B738_005_KATL_KBOS
B738_005_KATL_KLAX
B738_005_KATL_KMSP
B738_005_KATL_PANC
B738_005_KBOS_KATL
B738_005_KIAD_KSFO
B738_005_KIAH_KORD
B738_005_KJFK_KSEA
B738_005_KJFK_LFPG
B738_005_KLAX_KATL
B738_005_KMSP_KATL
B738_005_KORD_KIAH
B738_005_KSEA_KJFK
B738_005_KSFO_KIAD
B738_005_PANC_KATL
B738_008_KATL_KBOS
B738_008_KATL_KLAX
B738_008_KATL_KMSP
B738_008_KATL_PANC
B738_008_KBOS_KATL
B738_008_KIAD_KSFO
B738_008_KIAH_KORD
B738_008_KJFK_KSEA
B738_008_KJFK_LFPG
B738_008_KLAX_KATL
B738_008_KMSP_KATL
B738_008_KORD_KIAH
B738_008_KSEA_KJFK
B738_008_KSFO_KIAD
B738_008_PANC_KATL
B738_011_KATL_KBOS
B738_011_KATL_KLAX
B738_011_KATL_KMSP
B738_011_KATL_PANC
B738_011_KBOS_KATL
B738_011_KIAD_KSFO
B738_011_KIAH_KORD
B738_011_KJFK_KSEA
B738_011_KJFK_LFPG
B738_011_KLAX_KATL
B738_011_KMSP_KATL
B738_011_KORD_KIAH
B738_011_KSEA_KJFK
B738_011_KSFO_KIAD
B738_011_PANC_KATL
B738_014_KATL_KBOS
B738_014_KATL_KLAX
B738_014_KATL_KMSP
B738_014_KATL_PANC
B738_014_KBOS_KATL
B738_014_KIAD_KSFO
B738_014_KIAH_KORD
B738_014_KJFK_KSEA
B738_014_KJFK_LFPG
B738_014_KLAX_KATL
B738_014_KMSP_KATL
B738_014_KORD_KIAH
B738_014_KSEA_KJFK
B738_014_KSFO_KIAD
B738_014_PANC_KATL
End
